109
210
487
205
403
462
125
234
157
310
102
490
230
223
239
350
380
82
254
444
479
29
103
437
257
355
481
282
385
421
88
259
487
247
367
198
153
170
255
477
262
87
366
15
419
409
57
473
217
355
455
76
306
336
329
234
120
443
274
396
330
121
144
150
361
370
348
362
354
342
74
279
381
120
340
264
410
308
192
211
75
434
477
270
460
235
302
349
454
183
177
299
494
407
285
78
397
42
321
497
396
198
172
150
120
301
390
191
284
207
229
